NAME : Das150-10-f.2248089.tour
COMMENT : Length = 2248089
COMMENT : Found by LKH-3 [Keld Helsgaun] Fri Jun  6 12:36:43 2025
TYPE : TOUR
DIMENSION : 170
TOUR_SECTION
54
41
56
125
27
141
114
26
82
99
154
36
84
92
95
139
76
43
107
21
52
148
149
50
112
119
109
60
105
59
123
131
93
133
67
68
104
152
37
28
75
29
55
120
63
39
32
88
144
70
110
47
81
34
160
71
127
46
101
87
113
142
96
79
72
129
153
130
90
135
155
134
124
85
80
94
121
57
83
159
58
86
64
53
97
103
147
25
61
89
108
158
23
106
38
66
157
143
30
51
128
22
111
151
132
118
166
7
17
167
8
115
73
136
18
168
9
19
169
10
122
44
145
20
170
1
11
161
2
12
162
3
146
13
163
4
14
35
74
102
156
31
62
137
77
24
164
5
15
165
6
16
48
78
100
42
138
69
65
91
40
126
49
45
116
98
140
150
117
33
-1
EOF
